[[52, 54, 19, 59, 14, 53, 35, 7, 8, 46, 34, 67, 4, 75, 76, 68, 6, 51, 17, 40, 12, 26, 58, 11, 66, 65, 38, 10, 31, 72, 39, 9, 32, 25, 55, 50, 18, 44, 3, 24, 49, 16], [33, 63, 23, 56, 43, 41, 42, 64, 22, 73, 62, 28, 61, 21, 74, 2, 30, 45, 29, 48, 5, 47, 36, 69, 71, 60, 70, 20, 37, 15, 57, 13, 27]]